datasets/2-dimensional/CL_01_25_02.vbp
2
1000 1000 
25
301 195 30
278 269 72
139 110 4
353 388 88
285 367 54
303 314 64
272 297 90
160 182 26
334 236 94
359 225 28
203 315 72
232 175 49
313 169 54
113 166 19
298 131 28
135 132 61
191 334 84
232 105 23
125 111 67
136 220 53
333 396 54
281 109 16
249 123 9
301 105 54
306 123 77
