2-dimensional/CL_01_25_02.txt
1000 1000 
0 30 301 195 
1 72 278 269 
2 4 139 110 
3 88 353 388 
4 54 285 367 
5 64 303 314 
6 90 272 297 
7 26 160 182 
8 94 334 236 
9 28 359 225 
10 72 203 315 
11 49 232 175 
12 54 313 169 
13 19 113 166 
14 28 298 131 
15 61 135 132 
16 84 191 334 
17 23 232 105 
18 67 125 111 
19 53 136 220 
20 54 333 396 
21 16 281 109 
22 9 249 123 
23 54 301 105 
24 77 306 123 
